c colouring generated by benchmark framework
p edge 450 16750
v 1 1
v 2 23
v 3 12
v 4 2
v 5 1
v 6 7
v 7 19
v 8 19
v 9 19
v 10 13
v 11 13
v 12 17
v 13 14
v 14 2
v 15 12
v 16 25
v 17 12
v 18 14
v 19 23
v 20 15
v 21 22
v 22 9
v 23 2
v 24 14
v 25 22
v 26 22
v 27 9
v 28 25
v 29 18
v 30 23
v 31 18
v 32 3
v 33 10
v 34 19
v 35 15
v 36 9
v 37 23
v 38 20
v 39 6
v 40 21
v 41 0
v 42 7
v 43 18
v 44 10
v 45 0
v 46 0
v 47 14
v 48 0
v 49 0
v 50 18
v 51 11
v 52 10
v 53 21
v 54 2
v 55 0
v 56 2
v 57 9
v 58 16
v 59 25
v 60 5
v 61 21
v 62 7
v 63 8
v 64 4
v 65 18
v 66 21
v 67 24
v 68 6
v 69 9
v 70 24
v 71 3
v 72 7
v 73 2
v 74 16
v 75 0
v 76 8
v 77 6
v 78 17
v 79 23
v 80 0
v 81 18
v 82 16
v 83 20
v 84 11
v 85 15
v 86 18
v 87 12
v 88 6
v 89 2
v 90 18
v 91 19
v 92 19
v 93 19
v 94 2
v 95 4
v 96 13
v 97 11
v 98 19
v 99 5
v 100 20
v 101 18
v 102 12
v 103 20
v 104 12
v 105 5
v 106 4
v 107 3
v 108 16
v 109 14
v 110 9
v 111 24
v 112 14
v 113 9
v 114 10
v 115 12
v 116 0
v 117 1
v 118 10
v 119 7
v 120 15
v 121 16
v 122 21
v 123 0
v 124 24
v 125 0
v 126 20
v 127 2
v 128 6
v 129 24
v 130 13
v 131 13
v 132 9
v 133 20
v 134 3
v 135 0
v 136 9
v 137 16
v 138 12
v 139 16
v 140 12
v 141 12
v 142 8
v 143 23
v 144 15
v 145 19
v 146 25
v 147 9
v 148 6
v 149 23
v 150 18
v 151 8
v 152 13
v 153 23
v 154 19
v 155 22
v 156 9
v 157 17
v 158 14
v 159 5
v 160 17
v 161 13
v 162 18
v 163 3
v 164 15
v 165 17
v 166 20
v 167 8
v 168 5
v 169 14
v 170 0
v 171 1
v 172 25
v 173 21
v 174 19
v 175 15
v 176 11
v 177 1
v 178 10
v 179 21
v 180 15
v 181 1
v 182 8
v 183 4
v 184 23
v 185 13
v 186 5
v 187 25
v 188 6
v 189 4
v 190 3
v 191 18
v 192 7
v 193 8
v 194 7
v 195 10
v 196 2
v 197 7
v 198 14
v 199 16
v 200 15
v 201 8
v 202 16
v 203 4
v 204 6
v 205 9
v 206 13
v 207 1
v 208 19
v 209 12
v 210 8
v 211 1
v 212 21
v 213 2
v 214 19
v 215 17
v 216 9
v 217 21
v 218 9
v 219 14
v 220 7
v 221 0
v 222 14
v 223 11
v 224 23
v 225 22
v 226 20
v 227 0
v 228 8
v 229 25
v 230 3
v 231 11
v 232 1
v 233 24
v 234 17
v 235 24
v 236 8
v 237 20
v 238 23
v 239 11
v 240 15
v 241 9
v 242 4
v 243 6
v 244 2
v 245 10
v 246 3
v 247 17
v 248 12
v 249 5
v 250 17
v 251 9
v 252 18
v 253 11
v 254 5
v 255 5
v 256 5
v 257 3
v 258 10
v 259 15
v 260 21
v 261 7
v 262 20
v 263 19
v 264 16
v 265 20
v 266 9
v 267 10
v 268 16
v 269 12
v 270 19
v 271 13
v 272 2
v 273 19
v 274 6
v 275 15
v 276 24
v 277 8
v 278 14
v 279 16
v 280 11
v 281 17
v 282 17
v 283 13
v 284 11
v 285 23
v 286 4
v 287 11
v 288 13
v 289 2
v 290 24
v 291 22
v 292 4
v 293 17
v 294 22
v 295 5
v 296 1
v 297 1
v 298 11
v 299 15
v 300 22
v 301 25
v 302 12
v 303 15
v 304 11
v 305 18
v 306 3
v 307 7
v 308 19
v 309 4
v 310 14
v 311 0
v 312 19
v 313 12
v 314 13
v 315 4
v 316 1
v 317 12
v 318 2
v 319 11
v 320 16
v 321 6
v 322 4
v 323 7
v 324 11
v 325 24
v 326 22
v 327 1
v 328 4
v 329 8
v 330 6
v 331 16
v 332 6
v 333 2
v 334 16
v 335 1
v 336 3
v 337 14
v 338 6
v 339 15
v 340 20
v 341 2
v 342 3
v 343 3
v 344 8
v 345 23
v 346 23
v 347 3
v 348 16
v 349 10
v 350 21
v 351 3
v 352 7
v 353 20
v 354 11
v 355 22
v 356 13
v 357 11
v 358 6
v 359 16
v 360 0
v 361 0
v 362 3
v 363 22
v 364 1
v 365 21
v 366 10
v 367 15
v 368 21
v 369 13
v 370 6
v 371 8
v 372 1
v 373 8
v 374 5
v 375 18
v 376 0
v 377 0
v 378 14
v 379 17
v 380 5
v 381 4
v 382 7
v 383 1
v 384 14
v 385 0
v 386 0
v 387 15
v 388 8
v 389 1
v 390 8
v 391 2
v 392 17
v 393 14
v 394 0
v 395 12
v 396 20
v 397 7
v 398 9
v 399 18
v 400 11
v 401 0
v 402 10
v 403 12
v 404 10
v 405 25
v 406 13
v 407 10
v 408 14
v 409 25
v 410 16
v 411 1
v 412 4
v 413 12
v 414 22
v 415 4
v 416 5
v 417 5
v 418 19
v 419 11
v 420 25
v 421 2
v 422 9
v 423 14
v 424 16
v 425 18
v 426 16
v 427 22
v 428 8
v 429 2
v 430 4
v 431 22
v 432 10
v 433 20
v 434 18
v 435 15
v 436 4
v 437 1
v 438 8
v 439 21
v 440 15
v 441 9
v 442 1
v 443 19
v 444 23
v 445 5
v 446 20
v 447 8
v 448 3
v 449 18
v 450 8
